; shared hot solver base
; dim=5 alphabet=26 state=11
(declare-datatypes ((AlphabetSort 0)) (((AlphabetValue_0) (AlphabetValue_1) (AlphabetValue_2) (AlphabetValue_3) (AlphabetValue_4) (AlphabetValue_5) (AlphabetValue_6) (AlphabetValue_7) (AlphabetValue_8) (AlphabetValue_9) (AlphabetValue_10) (AlphabetValue_11) (AlphabetValue_12) (AlphabetValue_13) (AlphabetValue_14) (AlphabetValue_15) (AlphabetValue_16) (AlphabetValue_17) (AlphabetValue_18) (AlphabetValue_19) (AlphabetValue_20) (AlphabetValue_21) (AlphabetValue_22) (AlphabetValue_23) (AlphabetValue_24) (AlphabetValue_25))))
(declare-datatypes ((StateSort_GlobalStateHot 0)) (((StateValue_GlobalStateHot_0) (StateValue_GlobalStateHot_1) (StateValue_GlobalStateHot_2) (StateValue_GlobalStateHot_3) (StateValue_GlobalStateHot_4) (StateValue_GlobalStateHot_5) (StateValue_GlobalStateHot_6) (StateValue_GlobalStateHot_7) (StateValue_GlobalStateHot_8) (StateValue_GlobalStateHot_9) (StateValue_GlobalStateHot_10))))
(declare-const cell_0_0!0 AlphabetSort)
(declare-const cell_0_1!1 AlphabetSort)
(declare-const cell_0_2!2 AlphabetSort)
(declare-const cell_0_3!3 AlphabetSort)
(declare-const cell_0_4!4 AlphabetSort)
(declare-const cell_1_0!5 AlphabetSort)
(declare-const cell_1_1!6 AlphabetSort)
(declare-const cell_1_2!7 AlphabetSort)
(declare-const cell_1_3!8 AlphabetSort)
(declare-const cell_1_4!9 AlphabetSort)
(declare-const cell_2_0!10 AlphabetSort)
(declare-const cell_2_1!11 AlphabetSort)
(declare-const cell_2_2!12 AlphabetSort)
(declare-const cell_2_3!13 AlphabetSort)
(declare-const cell_2_4!14 AlphabetSort)
(declare-const cell_3_0!15 AlphabetSort)
(declare-const cell_3_1!16 AlphabetSort)
(declare-const cell_3_2!17 AlphabetSort)
(declare-const cell_3_3!18 AlphabetSort)
(declare-const cell_3_4!19 AlphabetSort)
(declare-const cell_4_0!20 AlphabetSort)
(declare-const cell_4_1!21 AlphabetSort)
(declare-const cell_4_2!22 AlphabetSort)
(declare-const cell_4_3!23 AlphabetSort)
(declare-const cell_4_4!24 AlphabetSort)
